11,8	0,0	10,5	5,8	0,0	0,0	0,0	0,0	0,0	16,4
16,4	11,1	0,0	13,4	9,4	0,0	0,0	13,0	0,0	0,0
0,0	0,0	15,3	0,0	10,1	9,0	0,0	0,0	6,4	0,0
14,7	0,0	12,4	0,0	0,0	0,0	13,4	0,0	0,0	0,0
0,0	13,0	0,0	12,4	13,5	0,0	0,0	10,1	0,0	0,0
0,0	16,2	11,1	0,0	17,6	9,3	0,0	0,0	19,6	0,0
0,0	10,9	0,0	19,3	0,0	0,0	6,7	0,0	0,0	18,2
11,1	0,0	9,5	0,0	0,0	0,0	0,0	0,0	0,0	13,3
0,0	16,9	0,0	17,0	12,9	0,0	0,0	19,4	0,0	0,0
0,0	0,0	17,9	0,0	0,0	18,6	12,7	0,0	0,0	15,2
0,0	16,7	0,0	0,0	16,6	0,0	16,6	0,0	12,3	9,3
12,0	0,0	15,0	0,0	13,3	0,0	17,4	17,8	8,4	0,0
0,0	7,8	0,0	0,0	0,0	5,8	0,0	17,6	7,3	7,4
17,0	12,7	18,2	0,0	0,0	17,3	0,0	5,6	5,7	0,0
5,1	0,0	9,7	0,0	11,2	8,0	5,8	9,3	0,0	0,0
0,0	5,1	0,0	15,1	0,0	5,7	0,0	5,2	0,0	0,0
12,5	0,0	12,3	6,5	5,3	0,0	0,0	18,0	0,0	0,0
0,0	0,0	14,3	0,0	0,0	5,4	15,4	0,0	9,9	8,3
6,0	0,0	0,0	17,1	12,7	12,0	15,4	18,1	0,0	18,4
0,0	15,0	0,0	15,8	0,0	0,0	18,9	0,0	18,0	5,7
									
5,0	4,6	4,9	2,8	2,8	3,2	2,6	4,8	4,5	3,5
